clingo version 5.3.0
Reading from ...nchmarks/assign/currentInst/x22_y28.lp ...
Solving...
*** Info : (clingo): INTERRUPTED by signal!
Answer: 1
assign(robot(2),shelf(1)). assign(robot(1),shelf(2)). assign(robot(210),shelf(3)). assign(robot(5),shelf(4)). assign(robot(6),shelf(5)). assign(robot(14),shelf(6)). assign(robot(27),shelf(7)). assign(robot(28),shelf(8)). assign(robot(26),shelf(9)). assign(robot(25),shelf(10)). assign(robot(24),shelf(11)). assign(robot(23),shelf(12)). assign(robot(29),shelf(13)). assign(robot(22),shelf(14)). assign(robot(18),shelf(15)). assign(robot(19),shelf(16)). assign(robot(17),shelf(17)). assign(robot(31),shelf(18)). assign(robot(15),shelf(19)). assign(robot(16),shelf(20)). assign(robot(21),shelf(21)). assign(robot(20),shelf(22)). assign(robot(13),shelf(23)). assign(robot(12),shelf(24)). assign(robot(11),shelf(25)). assign(robot(8),shelf(26)). assign(robot(9),shelf(27)). assign(robot(32),shelf(28)). assign(robot(7),shelf(29)). assign(robot(10),shelf(30)). assign(robot(30),shelf(31)). assign(robot(3),shelf(32)). assign(robot(33),shelf(33)). assign(robot(4),shelf(34)). assign(robot(34),shelf(35)). assign(robot(35),shelf(36)). assign(robot(119),shelf(37)). assign(robot(118),shelf(38)). assign(robot(117),shelf(39)). assign(robot(116),shelf(40)). assign(robot(115),shelf(41)). assign(robot(114),shelf(42)). assign(robot(113),shelf(43)). assign(robot(112),shelf(44)). assign(robot(111),shelf(45)). assign(robot(110),shelf(46)). assign(robot(109),shelf(47)). assign(robot(108),shelf(48)). assign(robot(107),shelf(49)). assign(robot(106),shelf(50)). assign(robot(105),shelf(51)). assign(robot(104),shelf(52)). assign(robot(154),shelf(53)). assign(robot(163),shelf(54)). assign(robot(165),shelf(55)). assign(robot(195),shelf(56)). assign(robot(129),shelf(57)). assign(robot(199),shelf(58)). assign(robot(143),shelf(59)). assign(robot(128),shelf(60)). assign(robot(145),shelf(61)). assign(robot(186),shelf(62)). assign(robot(200),shelf(63)). assign(robot(137),shelf(64)). assign(robot(181),shelf(65)). assign(robot(158),shelf(66)). assign(robot(207),shelf(67)). assign(robot(124),shelf(68)). assign(robot(121),shelf(69)). assign(robot(159),shelf(70)). assign(robot(103),shelf(71)). assign(robot(102),shelf(72)). assign(robot(101),shelf(73)). assign(robot(100),shelf(74)). assign(robot(99),shelf(75)). assign(robot(98),shelf(76)). assign(robot(97),shelf(77)). assign(robot(96),shelf(78)). assign(robot(95),shelf(79)). assign(robot(94),shelf(80)). assign(robot(93),shelf(81)). assign(robot(92),shelf(82)). assign(robot(91),shelf(83)). assign(robot(90),shelf(84)). assign(robot(89),shelf(85)). assign(robot(88),shelf(86)). assign(robot(87),shelf(87)). assign(robot(86),shelf(88)). assign(robot(85),shelf(89)). assign(robot(84),shelf(90)). assign(robot(83),shelf(91)). assign(robot(82),shelf(92)). assign(robot(81),shelf(93)). assign(robot(80),shelf(94)). assign(robot(79),shelf(95)). assign(robot(78),shelf(96)). assign(robot(77),shelf(97)). assign(robot(76),shelf(98)). assign(robot(75),shelf(99)). assign(robot(74),shelf(100)). assign(robot(73),shelf(101)). assign(robot(72),shelf(102)). assign(robot(71),shelf(103)). assign(robot(70),shelf(104)). assign(robot(69),shelf(105)). assign(robot(188),shelf(106)). assign(robot(125),shelf(107)). assign(robot(132),shelf(108)). assign(robot(127),shelf(109)). assign(robot(130),shelf(110)). assign(robot(151),shelf(111)). assign(robot(126),shelf(112)). assign(robot(166),shelf(113)). assign(robot(142),shelf(114)). assign(robot(205),shelf(115)). assign(robot(194),shelf(116)). assign(robot(131),shelf(117)). assign(robot(182),shelf(118)). assign(robot(191),shelf(119)). assign(robot(156),shelf(120)). assign(robot(162),shelf(121)). assign(robot(164),shelf(122)). assign(robot(168),shelf(123)). assign(robot(147),shelf(124)). assign(robot(167),shelf(125)). assign(robot(187),shelf(126)). assign(robot(208),shelf(127)). assign(robot(177),shelf(128)). assign(robot(152),shelf(129)). assign(robot(206),shelf(130)). assign(robot(179),shelf(131)). assign(robot(196),shelf(132)). assign(robot(122),shelf(133)). assign(robot(183),shelf(134)). assign(robot(160),shelf(135)). assign(robot(146),shelf(136)). assign(robot(170),shelf(137)). assign(robot(173),shelf(138)). assign(robot(123),shelf(139)). assign(robot(198),shelf(140)). assign(robot(120),shelf(141)). assign(robot(68),shelf(142)). assign(robot(67),shelf(143)). assign(robot(66),shelf(144)). assign(robot(65),shelf(145)). assign(robot(64),shelf(146)). assign(robot(63),shelf(147)). assign(robot(62),shelf(148)). assign(robot(61),shelf(149)). assign(robot(60),shelf(150)). assign(robot(59),shelf(151)). assign(robot(58),shelf(152)). assign(robot(57),shelf(153)). assign(robot(56),shelf(154)). assign(robot(55),shelf(155)). assign(robot(54),shelf(156)). assign(robot(53),shelf(157)). assign(robot(52),shelf(158)). assign(robot(51),shelf(159)). assign(robot(50),shelf(160)). assign(robot(49),shelf(161)). assign(robot(48),shelf(162)). assign(robot(47),shelf(163)). assign(robot(46),shelf(164)). assign(robot(45),shelf(165)). assign(robot(44),shelf(166)). assign(robot(43),shelf(167)). assign(robot(42),shelf(168)). assign(robot(41),shelf(169)). assign(robot(40),shelf(170)). assign(robot(39),shelf(171)). assign(robot(38),shelf(172)). assign(robot(37),shelf(173)). assign(robot(36),shelf(174)). assign(robot(197),shelf(175)). assign(robot(178),shelf(176)). assign(robot(157),shelf(177)). assign(robot(202),shelf(178)). assign(robot(175),shelf(179)). assign(robot(153),shelf(180)). assign(robot(140),shelf(181)). assign(robot(141),shelf(182)). assign(robot(144),shelf(183)). assign(robot(136),shelf(184)). assign(robot(189),shelf(185)). assign(robot(149),shelf(186)). assign(robot(174),shelf(187)). assign(robot(138),shelf(188)). assign(robot(135),shelf(189)). assign(robot(133),shelf(190)). assign(robot(184),shelf(191)). assign(robot(155),shelf(192)). assign(robot(193),shelf(193)). assign(robot(148),shelf(194)). assign(robot(190),shelf(195)). assign(robot(176),shelf(196)). assign(robot(161),shelf(197)). assign(robot(201),shelf(198)). assign(robot(192),shelf(199)). assign(robot(171),shelf(200)). assign(robot(169),shelf(201)). assign(robot(203),shelf(202)). assign(robot(150),shelf(203)). assign(robot(172),shelf(204)). assign(robot(204),shelf(205)). assign(robot(134),shelf(206)). assign(robot(185),shelf(207)). assign(robot(139),shelf(208)). assign(robot(209),shelf(209)). assign(robot(180),shelf(210)).
SATISFIABLE

INTERRUPTED  : 1
Models       : 1+
  Optimum    : unknown
Optimization : 2880
Calls        : 1
Time         : 59.984s (Solving: 59.40s 1st Model: 0.01s Unsat: 0.00s)
CPU Time     : 59.980s

Choices      : 621881  
Conflicts    : 367292   (Analyzed: 367292)
Restarts     : 1018     (Average: 360.80 Last: 365312)
Model-Level  : 20085.0 
Problems     : 1        (Average Length: 0.00 Splits: 0)
Lemmas       : 367292   (Deleted: 362572)
  Binary     : 0        (Ratio:   0.00%)
  Ternary    : 0        (Ratio:   0.00%)
  Conflict   : 367292   (Average Length:  258.5 Ratio: 100.00%) 
  Loop       : 0        (Average Length:    0.0 Ratio:   0.00%) 
  Other      : 0        (Average Length:    0.0 Ratio:   0.00%) 
Backjumps    : 367292   (Average:  1.06 Max:  34 Sum: 387661)
  Executed   : 367292   (Average:  1.06 Max:  34 Sum: 387661 Ratio: 100.00%)
  Bounded    : 0        (Average:  0.00 Max:   0 Sum:      0 Ratio:   0.00%)

Rules        : 168673   (Original: 138757)
  Choice     : 44100   
  Minimize   : 1       
Atoms        : 109176   (Original: 94236 Auxiliary: 14940)
Bodies       : 59461    (Original: 44521)
  Count      : 384      (Original: 420)
Equivalences : 44100    (Atom=Atom: 0 Body=Body: 0 Other: 44100)
Tight        : Yes
Variables    : 59250    (Eliminated:    0 Frozen: 44100)
Constraints  : 45486    (Binary:  82.2% Ternary:  16.5% Other:   1.3%)

